c "43585.clq"
p edge 139 540
e 1 5
e 1 6
e 1 7
e 1 10
e 1 14
e 1 24
e 1 28
e 1 32
e 1 33
e 1 44
e 1 46
e 1 50
e 1 52
e 1 59
e 1 64
e 1 67
e 1 69
e 1 70
e 1 73
e 1 86
e 1 87
e 1 96
e 1 99
e 1 101
e 1 119
e 1 120
e 1 123
e 1 128
e 1 132
e 2 5
e 2 66
e 2 138
e 3 5
e 3 6
e 3 7
e 3 9
e 3 12
e 3 15
e 3 21
e 3 29
e 3 39
e 3 41
e 3 57
e 3 76
e 3 109
e 3 121
e 4 5
e 4 6
e 4 8
e 4 11
e 4 15
e 4 16
e 4 21
e 4 22
e 4 25
e 4 31
e 4 41
e 4 49
e 4 61
e 4 62
e 4 70
e 4 76
e 4 83
e 5 6
e 5 7
e 5 8
e 5 9
e 5 11
e 5 16
e 5 18
e 5 19
e 5 22
e 5 24
e 5 26
e 5 30
e 5 32
e 5 33
e 5 34
e 5 36
e 5 40
e 5 43
e 5 46
e 5 48
e 5 59
e 5 66
e 5 83
e 5 87
e 5 114
e 5 125
e 6 7
e 6 8
e 6 9
e 6 10
e 6 12
e 6 13
e 6 14
e 6 17
e 6 20
e 6 23
e 6 24
e 6 25
e 6 27
e 6 29
e 6 37
e 6 39
e 6 67
e 6 68
e 6 76
e 6 83
e 6 97
e 6 106
e 6 109
e 6 110
e 6 116
e 6 135
e 7 8
e 7 10
e 7 13
e 7 14
e 7 18
e 7 19
e 7 20
e 7 22
e 7 23
e 7 28
e 7 31
e 7 41
e 7 44
e 7 46
e 7 54
e 7 55
e 7 64
e 7 70
e 7 78
e 7 82
e 7 84
e 7 90
e 7 98
e 7 124
e 7 127
e 8 9
e 8 11
e 8 12
e 8 13
e 8 15
e 8 16
e 8 17
e 8 23
e 8 24
e 8 25
e 8 30
e 8 35
e 8 36
e 8 39
e 8 44
e 8 53
e 8 63
e 8 66
e 8 119
e 8 137
e 9 10
e 9 11
e 9 13
e 9 14
e 9 17
e 9 18
e 9 29
e 9 36
e 9 39
e 9 43
e 9 67
e 9 71
e 9 73
e 9 74
e 9 80
e 9 86
e 9 87
e 9 90
e 9 104
e 9 107
e 9 113
e 9 134
e 9 138
e 10 15
e 10 16
e 10 49
e 10 65
e 10 79
e 10 84
e 10 94
e 11 12
e 11 19
e 11 21
e 11 26
e 11 27
e 11 40
e 11 42
e 11 52
e 11 55
e 11 56
e 11 62
e 11 91
e 12 17
e 12 19
e 12 22
e 12 28
e 12 35
e 12 43
e 12 65
e 12 79
e 12 81
e 12 103
e 12 125
e 12 133
e 13 60
e 13 77
e 13 80
e 13 126
e 14 18
e 14 31
e 14 34
e 14 35
e 14 47
e 14 53
e 14 57
e 14 70
e 14 88
e 14 89
e 14 116
e 14 126
e 14 135
e 15 57
e 15 68
e 15 100
e 15 103
e 15 109
e 15 119
e 15 130
e 16 107
e 16 126
e 17 20
e 17 21
e 17 23
e 17 26
e 17 27
e 17 32
e 17 33
e 17 38
e 17 50
e 17 51
e 17 57
e 17 60
e 17 66
e 17 72
e 17 74
e 17 75
e 17 85
e 17 86
e 17 91
e 17 93
e 17 112
e 17 121
e 17 129
e 17 133
e 18 20
e 18 34
e 18 40
e 18 47
e 18 48
e 18 56
e 18 91
e 18 110
e 19 43
e 19 78
e 19 86
e 19 131
e 19 136
e 20 25
e 20 26
e 20 58
e 20 67
e 20 69
e 21 31
e 21 45
e 21 60
e 21 82
e 22 30
e 22 32
e 22 42
e 22 55
e 22 59
e 22 64
e 22 65
e 22 81
e 22 93
e 22 104
e 22 107
e 22 108
e 22 112
e 23 47
e 23 50
e 23 58
e 23 92
e 23 94
e 23 115
e 23 117
e 23 125
e 24 34
e 24 38
e 24 42
e 24 54
e 24 61
e 24 62
e 24 77
e 24 79
e 24 80
e 24 88
e 24 99
e 24 113
e 24 131
e 25 27
e 25 28
e 25 29
e 25 45
e 25 52
e 25 82
e 25 85
e 25 97
e 25 121
e 25 137
e 25 139
e 26 33
e 26 48
e 26 52
e 26 63
e 26 94
e 26 107
e 26 120
e 26 128
e 27 36
e 27 37
e 27 47
e 27 51
e 27 56
e 27 99
e 27 105
e 27 106
e 27 108
e 27 114
e 27 131
e 29 30
e 29 38
e 29 40
e 29 50
e 29 69
e 29 73
e 29 111
e 29 116
e 29 124
e 30 95
e 31 41
e 31 44
e 31 45
e 31 64
e 31 84
e 31 96
e 31 124
e 32 35
e 32 38
e 32 49
e 32 54
e 32 63
e 32 71
e 32 75
e 32 101
e 32 111
e 32 127
e 32 135
e 33 37
e 33 51
e 33 85
e 34 45
e 34 58
e 34 83
e 35 78
e 36 37
e 36 42
e 36 48
e 36 73
e 36 75
e 36 102
e 36 134
e 36 136
e 36 138
e 37 53
e 37 74
e 37 93
e 37 106
e 37 108
e 37 111
e 38 49
e 38 65
e 38 71
e 38 72
e 38 77
e 38 126
e 39 104
e 40 55
e 40 85
e 41 58
e 42 46
e 42 51
e 42 54
e 42 89
e 42 90
e 43 61
e 43 102
e 43 111
e 43 123
e 43 134
e 44 92
e 44 104
e 44 118
e 44 120
e 44 137
e 45 59
e 45 62
e 45 72
e 45 90
e 45 102
e 45 130
e 46 89
e 48 95
e 49 68
e 49 69
e 49 130
e 50 75
e 50 97
e 50 98
e 51 94
e 51 98
e 51 100
e 51 135
e 52 53
e 52 60
e 52 82
e 52 103
e 52 105
e 52 118
e 52 136
e 53 56
e 54 79
e 54 97
e 55 61
e 55 63
e 55 124
e 56 68
e 56 71
e 56 88
e 57 125
e 58 72
e 59 98
e 60 74
e 60 117
e 60 118
e 60 119
e 60 128
e 62 105
e 64 120
e 64 133
e 64 136
e 65 88
e 65 89
e 65 96
e 65 117
e 65 139
e 69 103
e 70 77
e 70 81
e 70 91
e 70 132
e 70 137
e 71 81
e 72 84
e 72 106
e 72 139
e 73 76
e 73 78
e 74 80
e 74 87
e 74 92
e 75 115
e 79 92
e 80 95
e 80 100
e 80 108
e 80 112
e 80 122
e 80 123
e 81 100
e 84 118
e 85 105
e 85 132
e 86 93
e 86 129
e 86 133
e 88 95
e 89 127
e 90 96
e 91 129
e 92 113
e 92 114
e 92 115
e 92 130
e 92 131
e 93 99
e 94 110
e 95 102
e 95 122
e 96 122
e 97 101
e 98 101
e 98 110
e 98 132
e 101 109
e 101 113
e 103 123
e 105 114
e 105 122
e 105 138
e 108 128
e 109 112
e 109 115
e 109 117
e 111 116
e 111 129
e 112 121
e 120 139
e 124 134
e 125 127
